14 98
11 18
31 57
72 18
97 64
8 58
34 49
97 53
49 15
22 25
43 61
20 91
96 64
96 72
5 91
73 1
8 42
84 66
25 64
79 43
76 7
63 99
7 71
53 30
89 6
7 56
19 37
6 18
14 27
34 57
